NAME : arr.tsp
TIME : 2020-10-29 16:38:55
COMMENT : hello world
DIMENSION : 22
NODE_COORD_SECTION
0 78.2361 21.3710
1 74.2750 23.5887
2 73.4261 18.7500
3 66.3526 17.5403
4 17.6867 87.9032
5 12.5937 80.0403
6 18.5355 68.1452
7 25.0431 77.4194
8 41.1708 84.0726
9 82.4803 84.2742
10 87.0073 63.3065
11 74.8408 64.5161
12 74.2750 76.2097
13 49.0932 47.1774
14 44.8491 41.9355
15 43.4343 49.7984
16 36.0779 51.0081
17 12.5937 11.0887
18 19.3843 30.0403
19 19.6673 20.9677
20 8.9155 23.7903
21 26.7408 18.3468
EOF
